c ren 1 -> 1
c ren 2 -> 2
c ren 4 -> 3
c ren 6 -> 4
c ren 8 -> 5
c ren 17 -> 6
c ren 18 -> 7
c ren 21 -> 8
c ren 22 -> 9
c ren 23 -> 10
c ren 25 -> 11
c ren 27 -> 12
c ren 30 -> 13
c ren 31 -> 14
c ren 33 -> 15
c ren 35 -> 16
c ren 37 -> 17
c ren 39 -> 18
c ren 41 -> 19
c ren 47 -> 20
c ren 61 -> 21
c ren 65 -> 22
c ren 78 -> 23
c ren 111 -> 24
c ren 112 -> 25
p cnf 25 104
a 1 2 3 4 5 6 9 10 13 14 15 16 17 18 21 22 23 25 0
d 7 1 21 0
d 11 6 22 0
d 19 9 23 0
d 24 13 25 0
e 8 12 20 0
-5 8 -11 -12 -20 -23 0
-5 8 -12 14 -20 25 0
-3 8 -12 14 -20 25 0
-4 8 -10 -11 -12 -20 0
-2 8 -11 -12 -20 -23 0
2 3 4 5 7 8 -12 -20 21 -22 0
-3 8 -12 -18 -19 -20 0
-3 -7 8 -12 -20 -22 0
-3 8 -10 -11 -12 -20 0
-2 8 -12 14 -20 25 0
-3 8 -12 -20 -24 0
-9 10 -11 12 0
-3 8 -12 -17 -19 -20 0
9 11 12 0
8 -11 -12 -20 -22 -23 0
13 -18 20 0
8 -12 -17 -19 -20 -21 0
2 3 4 5 8 10 -12 15 16 17 18 -20 21 22 23 24 -25 0
13 19 20 0
8 -12 -16 -19 -20 -23 0
1 -3 6 7 -8 0
-3 8 -12 -16 -19 -20 0
8 -12 -15 -19 -20 -22 0
-4 8 -12 -18 -19 -20 0
1 -3 -6 -7 -8 0
8 -10 -12 14 -20 25 0
-4 8 -12 -16 -19 -20 0
-4 8 -12 -20 -24 0
1 -4 6 7 -8 0
-4 8 -12 -17 -19 -20 0
-5 8 -10 -11 -12 -20 0
-5 -7 8 -12 -20 -22 0
-5 8 -12 -18 -19 -20 0
-5 8 -12 -20 -24 0
-4 8 -12 14 -20 25 0
-5 8 -12 -17 -19 -20 0
-3 8 -11 -12 -20 -23 0
2 3 4 5 8 11 -12 -20 21 22 -23 0
-5 8 -12 -16 -19 -20 0
-5 8 -12 -15 -19 -20 0
-2 8 -12 -16 -19 -20 0
2 3 4 5 8 10 -12 -15 19 -20 21 22 23 0
1 -5 6 7 -8 0
8 -11 -12 -20 -21 -23 0
2 3 4 5 8 10 -12 -14 15 16 17 18 -20 21 22 23 0
8 -12 -18 -19 -20 -21 0
8 -12 -17 -19 -20 -23 0
-2 8 -12 -18 -19 -20 0
8 -10 -12 -16 -19 -20 0
-4 8 -11 -12 -20 -23 0
8 -12 -20 -21 -24 0
9 -10 12 0
2 3 4 5 8 10 -12 -18 19 -20 21 22 23 0
8 -10 -11 -12 -20 -22 0
8 -12 -18 -19 -20 -22 0
8 -12 14 -20 -23 25 0
-2 8 -10 -11 -12 -20 0
-2 8 -12 -17 -19 -20 0
-7 8 -12 -20 -21 -22 0
13 -14 20 0
8 -10 -12 -15 -19 -20 0
-4 -7 8 -12 -20 -22 0
-2 8 -12 -15 -19 -20 0
8 -12 -17 -19 -20 -22 0
8 -12 -20 -22 -24 0
8 -10 -12 -18 -19 -20 0
8 -12 14 -15 -20 0
13 -15 20 0
2 3 4 5 8 -10 11 -12 -20 21 22 0
8 -12 -16 -19 -20 -21 0
8 -10 -11 -12 -20 -21 0
8 -12 -18 -19 -20 -23 0
2 3 4 5 8 10 -12 -17 19 -20 21 22 23 0
8 -10 -12 -20 -24 0
13 -16 20 0
8 -10 -12 -17 -19 -20 0
-1 2 3 4 5 6 7 -8 0
-3 8 -12 -15 -19 -20 0
8 -12 -15 -19 -20 -23 0
8 -12 14 -16 -20 0
-4 8 -12 -15 -19 -20 0
-1 2 3 4 5 -6 -7 -8 0
8 -12 -16 -19 -20 -22 0
8 -12 -15 -19 -20 -21 0
8 -12 14 19 -20 0
8 -12 -20 -23 -24 0
8 -12 14 -18 -20 0
8 -12 14 -20 -21 25 0
13 -17 20 0
-13 14 15 16 17 18 -19 20 0
2 3 4 5 8 10 -12 -16 19 -20 21 22 23 0
8 -12 14 -17 -20 0
8 -12 -17 -20 -24 0
8 -12 -16 -20 -24 0
1 -5 -6 -7 -8 0
1 -2 -6 -7 -8 0
8 -12 -18 -20 -24 0
1 -4 -6 -7 -8 0
-2 8 -12 -20 -24 0
8 -12 -15 -20 -24 0
1 -2 6 7 -8 0
8 -12 14 -20 -22 25 0
8 -12 -14 -20 -24 0
-2 -7 8 -12 -20 -22 0
